n = 29;
budget = 250000;
groceries = [|110,90,25,125,2418|147,42,133,92,1552|40,320,260,169,3663|140,49,168,183,2060|112,168,210,112,1217|161,56,133,67,2615|40,110,110,141,1971|70,260,250,176,3840|144,192,42,121,2672|8,240,80,96,3784|63,350,126,85,3207|99,387,9,150,3691|15,270,120,136,1644|63,315,28,60,3426|66,120,138,152,906|36,204,84,127,1047|63,350,98,104,2191|36,306,96,106,1556|140,90,730,175,3722|36,9,306,92,1356|30,40,185,68,2110|20,130,315,91,1927|135,261,297,57,3992|15,110,40,122,2845|60,340,760,66,874|24,208,336,102,1975|60,54,108,107,3372|100,620,290,84,1877|117,72,243,86,2021|];
requirements = [|912,1104|4800,4800|1368,1488|];
offset = [|91,220|2400,3120|342,520|];
variety = 19;